TIME 50
2174
19146
1926
19146
1084
19147
2777
19145
1448
19146
1568
19151
1716
19150
1425
19151
1195
19151
1333
19147
TIME 100
2109
19146
2265
19149
2664
19146
2717
19146
1713
19146
2074
19146
674
19151
1010
19150
1079
19151
457
19151
TIME 150
2104
19149
2054
19151
1777
19151
2033
19146
2612
19150
2538
19149
1979
19146
1486
19147
1814
19146
2255
19147
TIME 200
2622
19149
973
19150
1222
19147
906
19151
1539
19147
1190
19150
1406
19151
756
19150
3202
19146
2743
19149
TIME 250
1188
19146
2206
19147
1651
19146
874
19145
981
19145
1129
19150
2168
19147
874
19147
1456
19151
879
19151
TIME 300
990
19149
1463
19146
1466
19150
2039
19147
1709
19149
1442
19150
2111
19146
2449
19150
2404
19150
2685
19151
TIME 350
4732
19145
3044
19145
